SECTION Comment
Auto Generated file.
Name "eil51_5_03"
Problem "Stochastic Traveling Salesman Problem"
Dimension: 51
Scenarios: 5
END

SECTION Graph
Nodes 51
Edges 1275
Scenarios 5
Root 0
E 2 1 12
E 3 1 19
E 3 2 15
E 4 1 31
E 4 2 37
E 4 3 49
E 5 1 22
E 5 2 21
E 5 3 36
E 5 4 20
E 6 1 16
E 6 2 28
E 6 3 35
E 6 4 21
E 6 5 25
E 7 1 22
E 7 2 34
E 7 3 35
E 7 4 37
E 7 5 40
E 7 6 16
E 8 1 11
E 8 2 22
E 8 3 21
E 8 4 37
E 8 5 33
E 8 6 18
E 8 7 14
E 9 1 24
E 9 2 16
E 9 3 31
E 9 4 32
E 9 5 12
E 9 6 34
E 9 7 46
E 9 8 35
E 10 1 34
E 10 2 28
E 10 3 43
E 10 4 31
E 10 5 14
E 10 6 39
E 10 7 54
E 10 8 45
E 10 9 12
E 11 1 12
E 11 2 10
E 11 3 25
E 11 4 26
E 11 5 11
E 11 6 21
E 11 7 33
E 11 8 23
E 11 9 12
E 11 10 21
E 12 1 20
E 12 2 24
E 12 3 38
E 12 4 12
E 12 5 9
E 12 6 18
E 12 7 34
E 12 8 30
E 12 9 21
E 12 10 22
E 12 11 14
E 13 1 41
E 13 2 50
E 13 3 61
E 13 4 15
E 13 5 35
E 13 6 27
E 13 7 39
E 13 8 45
E 13 9 47
E 13 10 46
E 13 11 40
E 13 12 26
E 14 1 26
E 14 2 37
E 14 3 45
E 14 4 17
E 14 5 30
E 14 6 10
E 14 7 21
E 14 8 27
E 14 9 41
E 14 10 44
E 14 11 30
E 14 12 21
E 14 13 18
E 15 1 36
E 15 2 35
E 15 3 50
E 15 4 18
E 15 5 14
E 15 6 34
E 15 7 50
E 15 8 46
E 15 9 23
E 15 10 15
E 15 11 25
E 15 12 16
E 15 13 32
E 15 14 35
E 16 1 18
E 16 2 8
E 16 3 23
E 16 4 35
E 16 5 16
E 16 6 31
E 16 7 41
E 16 8 29
E 16 9 8
E 16 10 20
E 16 11 10
E 16 12 22
E 16 13 49
E 16 14 40
E 16 15 29
E 17 1 30
E 17 2 34
E 17 3 48
E 17 4 7
E 17 5 14
E 17 6 24
E 17 7 41
E 17 8 39
E 17 9 26
E 17 10 24
E 17 11 23
E 17 12 9
E 17 13 22
E 17 14 24
E 17 15 11
E 17 16 30
E 18 1 27
E 18 2 35
E 18 3 46
E 18 4 7
E 18 5 23
E 18 6 14
E 18 7 30
E 18 8 32
E 18 9 35
E 18 10 36
E 18 11 26
E 18 12 14
E 18 13 14
E 18 14 10
E 18 15 25
E 18 16 35
E 18 17 14
E 19 1 45
E 19 2 50
E 19 3 64
E 19 4 14
E 19 5 31
E 19 6 34
E 19 7 50
E 19 8 52
E 19 9 43
E 19 10 38
E 19 11 40
E 19 12 26
E 19 13 14
E 19 14 29
E 19 15 23
E 19 16 48
E 19 17 17
E 19 18 20
E 20 1 20
E 20 2 12
E 20 3 7
E 20 4 48
E 20 5 32
E 20 6 37
E 20 7 40
E 20 8 26
E 20 9 25
E 20 10 37
E 20 11 22
E 20 12 36
E 20 13 61
E 20 14 47
E 20 15 46
E 20 16 17
E 20 17 46
E 20 18 47
E 20 19 62
E 21 1 26
E 21 2 14
E 21 3 24
E 21 4 44
E 21 5 25
E 21 6 41
E 21 7 49
E 21 8 36
E 21 9 13
E 21 10 23
E 21 11 20
E 21 12 32
E 21 13 59
E 21 14 50
E 21 15 36
E 21 16 10
E 21 17 39
E 21 18 45
E 21 19 56
E 21 20 16
E 22 1 7
E 22 2 10
E 22 3 12
E 22 4 38
E 22 5 27
E 22 6 23
E 22 7 25
E 22 8 12
E 22 9 26
E 22 10 37
E 22 11 16
E 22 12 27
E 22 13 48
E 22 14 33
E 22 15 41
E 22 16 18
E 22 17 37
E 22 18 34
E 22 19 52
E 22 20 15
E 22 21 25
E 23 1 21
E 23 2 33
E 23 3 36
E 23 4 31
E 23 5 36
E 23 6 11
E 23 7 6
E 23 8 15
E 23 9 43
E 23 10 50
E 23 11 30
E 23 12 29
E 23 13 33
E 23 14 15
E 23 15 45
E 23 16 39
E 23 17 35
E 23 18 24
E 23 19 44
E 23 20 41
E 23 21 48
E 23 22 26
E 24 1 29
E 24 2 41
E 24 3 45
E 24 4 28
E 24 5 38
E 24 6 13
E 24 7 14
E 24 8 25
E 24 9 47
E 24 10 53
E 24 11 35
E 24 12 30
E 24 13 27
E 24 14 10
E 24 15 45
E 24 16 45
E 24 17 34
E 24 18 21
E 24 19 39
E 24 20 49
E 24 21 54
E 24 22 34
E 24 23 9
E 25 1 33
E 25 2 43
E 25 3 51
E 25 4 17
E 25 5 33
E 25 6 16
E 25 7 26
E 25 8 33
E 25 9 45
E 25 10 47
E 25 11 35
E 25 12 24
E 25 13 13
E 25 14 6
E 25 15 36
E 25 16 45
E 25 17 25
E 25 18 11
E 25 19 25
E 25 20 53
E 25 21 55
E 25 22 39
E 25 23 21
E 25 24 14
E 26 1 18
E 26 2 29
E 26 3 25
E 26 4 42
E 26 5 40
E 26 6 21
E 26 7 11
E 26 8 7
E 26 9 43
E 26 10 52
E 26 11 30
E 26 12 36
E 26 13 48
E 26 14 30
E 26 15 52
E 26 16 36
E 26 17 45
E 26 18 36
E 26 19 56
E 26 20 31
E 26 21 43
E 26 22 18
E 26 23 15
E 26 24 24
E 26 25 36
E 27 1 8
E 27 2 19
E 27 3 27
E 27 4 24
E 27 5 20
E 27 6 9
E 27 7 19
E 27 8 14
E 27 9 26
E 27 10 34
E 27 11 13
E 27 12 16
E 27 13 33
E 27 14 18
E 27 15 32
E 27 16 23
E 27 17 25
E 27 18 19
E 27 19 38
E 27 20 28
E 27 21 32
E 27 22 15
E 27 23 16
E 27 24 22
E 27 25 25
E 27 26 20
E 28 1 16
E 28 2 18
E 28 3 9
E 28 4 47
E 28 5 37
E 28 6 29
E 28 7 26
E 28 8 13
E 28 9 35
E 28 10 46
E 28 11 26
E 28 12 37
E 28 13 56
E 28 14 39
E 28 15 51
E 28 16 27
E 28 17 46
E 28 18 42
E 28 19 61
E 28 20 16
E 28 21 31
E 28 22 10
E 28 23 28
E 28 24 38
E 28 25 46
E 28 26 16
E 28 27 23
E 29 1 21
E 29 2 9
E 29 3 17
E 29 4 43
E 29 5 25
E 29 6 37
E 29 7 43
E 29 8 30
E 29 9 16
E 29 10 27
E 29 11 17
E 29 12 31
E 29 13 57
E 29 14 46
E 29 15 38
E 29 16 9
E 29 17 39
E 29 18 43
E 29 19 57
E 29 20 10
E 29 21 7
E 29 22 18
E 29 23 42
E 29 24 50
E 29 25 51
E 29 26 36
E 29 27 28
E 29 28 24
E 30 1 32
E 30 2 23
E 30 3 37
E 30 4 38
E 30 5 18
E 30 6 42
E 30 7 54
E 30 8 44
E 30 9 8
E 30 10 9
E 30 11 21
E 30 12 27
E 30 13 53
E 30 14 48
E 30 15 24
E 30 16 15
E 30 17 31
E 30 18 41
E 30 19 47
E 30 20 31
E 30 21 15
E 30 22 34
E 30 23 51
E 30 24 55
E 30 25 52
E 30 26 51
E 30 27 35
E 30 28 42
E 30 29 21
E 31 1 17
E 31 2 23
E 31 3 15
E 31 4 46
E 31 5 39
E 31 6 27
E 31 7 20
E 31 8 9
E 31 9 39
E 31 10 50
E 31 11 28
E 31 12 37
E 31 13 54
E 31 14 36
E 31 15 53
E 31 16 31
E 31 17 47
E 31 18 41
E 31 19 60
E 31 20 22
E 31 21 36
E 31 22 13
E 31 23 24
E 31 24 33
E 31 25 43
E 31 26 10
E 31 27 22
E 31 28 6
E 31 29 29
E 31 30 46
E 32 1 6
E 32 2 11
E 32 3 22
E 32 4 26
E 32 5 16
E 32 6 17
E 32 7 27
E 32 8 17
E 32 9 19
E 32 10 28
E 32 11 6
E 32 12 15
E 32 13 39
E 32 14 26
E 32 15 30
E 32 16 14
E 32 17 25
E 32 18 24
E 32 19 41
E 32 20 22
E 32 21 24
E 32 22 11
E 32 23 24
E 32 24 30
E 32 25 32
E 32 26 24
E 32 27 8
E 32 28 21
E 32 29 20
E 32 30 27
E 32 31 23
E 33 1 42
E 33 2 39
E 33 3 54
E 33 4 30
E 33 5 20
E 33 6 44
E 33 7 60
E 33 8 54
E 33 9 23
E 33 10 12
E 33 11 31
E 33 12 26
E 33 13 43
E 33 14 46
E 33 15 11
E 33 16 31
E 33 17 23
E 33 18 37
E 33 19 33
E 33 20 49
E 33 21 35
E 33 22 47
E 33 23 55
E 33 24 56
E 33 25 48
E 33 26 61
E 33 27 41
E 33 28 57
E 33 29 39
E 33 30 20
E 33 31 59
E 33 32 36
E 34 1 30
E 34 2 20
E 34 3 32
E 34 4 41
E 34 5 21
E 34 6 42
E 34 7 53
E 34 8 41
E 34 9 9
E 34 10 15
E 34 11 20
E 34 12 30
E 34 13 56
E 34 14 49
E 34 15 30
E 34 16 12
E 34 17 35
E 34 18 44
E 34 19 52
E 34 20 25
E 34 21 9
E 34 22 30
E 34 23 51
E 34 24 56
E 34 25 54
E 34 26 48
E 34 27 34
E 34 28 38
E 34 29 15
E 34 30 6
E 34 31 43
E 34 32 26
E 34 33 27
E 35 1 27
E 35 2 19
E 35 3 10
E 35 4 55
E 35 5 39
E 35 6 44
E 35 7 45
E 35 8 31
E 35 9 31
E 35 10 43
E 35 11 29
E 35 12 43
E 35 13 68
E 35 14 54
E 35 15 53
E 35 16 24
E 35 17 53
E 35 18 54
E 35 19 70
E 35 20 7
E 35 21 21
E 35 22 20
E 35 23 46
E 35 24 55
E 35 25 60
E 35 26 35
E 35 27 35
E 35 28 19
E 35 29 15
E 35 30 36
E 35 31 25
E 35 32 29
E 35 33 55
E 35 34 30
E 36 1 31
E 36 2 24
E 36 3 12
E 36 4 60
E 36 5 45
E 36 6 47
E 36 7 46
E 36 8 32
E 36 9 37
E 36 10 49
E 36 11 35
E 36 12 48
E 36 13 72
E 36 14 57
E 36 15 59
E 36 16 30
E 36 17 58
E 36 18 58
E 36 19 75
E 36 20 12
E 36 21 27
E 36 22 24
E 36 23 48
E 36 24 57
E 36 25 64
E 36 26 36
E 36 27 39
E 36 28 20
E 36 29 21
E 36 30 42
E 36 31 26
E 36 32 33
E 36 33 61
E 36 34 36
E 36 35 6
E 37 1 30
E 37 2 31
E 37 3 46
E 37 4 12
E 37 5 11
E 37 6 27
E 37 7 43
E 37 8 40
E 37 9 22
E 37 10 19
E 37 11 21
E 37 12 10
E 37 13 27
E 37 14 28
E 37 15 7
E 37 16 27
E 37 17 5
E 37 18 18
E 37 19 21
E 37 20 43
E 37 21 36
E 37 22 36
E 37 23 38
E 37 24 38
E 37 25 29
E 37 26 46
E 37 27 26
E 37 28 46
E 37 29 36
E 37 30 26
E 37 31 47
E 37 32 24
E 37 33 18
E 37 34 31
E 37 35 50
E 37 36 56
E 38 1 18
E 38 2 14
E 38 3 29
E 38 4 26
E 38 5 7
E 38 6 26
E 38 7 39
E 38 8 30
E 38 9 7
E 38 10 15
E 38 11 6
E 38 12 14
E 38 13 41
E 38 14 33
E 38 15 21
E 38 16 9
E 38 17 21
E 38 18 28
E 38 19 38
E 38 20 25
E 38 21 18
E 38 22 22
E 38 23 36
E 38 24 40
E 38 25 38
E 38 26 37
E 38 27 19
E 38 28 32
E 38 29 18
E 38 30 15
E 38 31 34
E 38 32 13
E 38 33 25
E 38 34 16
E 38 35 32
E 38 36 38
E 38 37 18
E 39 1 43
E 39 2 35
E 39 3 49
E 39 4 40
E 39 5 24
E 39 6 49
E 39 7 63
E 39 8 54
E 39 9 19
E 39 10 10
E 39 11 31
E 39 12 32
E 39 13 54
E 39 14 54
E 39 15 23
E 39 16 26
E 39 17 32
E 39 18 45
E 39 19 46
E 39 20 43
E 39 21 27
E 39 22 45
E 39 23 60
E 39 24 63
E 39 25 56
E 39 26 61
E 39 27 43
E 39 28 54
E 39 29 33
E 39 30 12
E 39 31 58
E 39 32 37
E 39 33 13
E 39 34 18
E 39 35 48
E 39 36 54
E 39 37 27
E 39 38 24
E 40 1 56
E 40 2 61
E 40 3 74
E 40 4 25
E 40 5 42
E 40 6 44
E 40 7 58
E 40 8 61
E 40 9 54
E 40 10 48
E 40 11 50
E 40 12 36
E 40 13 19
E 40 14 36
E 40 15 32
E 40 16 58
E 40 17 27
E 40 18 29
E 40 19 10
E 40 20 73
E 40 21 67
E 40 22 63
E 40 23 52
E 40 24 46
E 40 25 32
E 40 26 65
E 40 27 48
E 40 28 71
E 40 29 67
E 40 30 57
E 40 31 70
E 40 32 51
E 40 33 41
E 40 34 62
E 40 35 80
E 40 36 85
E 40 37 31
E 40 38 49
E 40 39 54
E 41 1 44
E 41 2 50
E 41 3 63
E 41 4 13
E 41 5 32
E 41 6 31
E 41 7 46
E 41 8 49
E 41 9 44
E 41 10 41
E 41 11 40
E 41 12 25
E 41 13 9
E 41 14 25
E 41 15 26
E 41 16 48
E 41 17 18
E 41 18 17
E 41 19 5
E 41 20 62
E 41 21 57
E 41 22 51
E 41 23 40
E 41 24 35
E 41 25 21
E 41 26 53
E 41 27 36
E 41 28 59
E 41 29 57
E 41 30 49
E 41 31 58
E 41 32 40
E 41 33 36
E 41 34 53
E 41 35 69
E 41 36 74
E 41 37 22
E 41 38 39
E 41 39 49
E 41 40 12
E 42 1 44
E 42 2 48
E 42 3 62
E 42 4 16
E 42 5 27
E 42 6 37
E 42 7 53
E 42 8 52
E 42 9 38
E 42 10 31
E 42 11 37
E 42 12 24
E 42 13 21
E 42 14 33
E 42 15 16
E 42 16 43
E 42 17 14
E 42 18 23
E 42 19 8
E 42 20 60
E 42 21 52
E 42 22 51
E 42 23 47
E 42 24 43
E 42 25 31
E 42 26 58
E 42 27 39
E 42 28 61
E 42 29 53
E 42 30 40
E 42 31 61
E 42 32 39
E 42 33 25
E 42 34 46
E 42 35 67
E 42 36 72
E 42 37 16
E 42 38 34
E 42 39 38
E 42 40 16
E 42 41 13
E 43 1 34
E 43 2 46
E 43 3 47
E 43 4 40
E 43 5 48
E 43 6 23
E 43 7 12
E 43 8 26
E 43 9 56
E 43 10 62
E 43 11 43
E 43 12 41
E 43 13 39
E 43 14 23
E 43 15 57
E 43 16 52
E 43 17 46
E 43 18 33
E 43 19 51
E 43 20 52
E 43 21 61
E 43 22 37
E 43 23 13
E 43 24 12
E 43 25 26
E 43 26 22
E 43 27 29
E 43 28 38
E 43 29 55
E 43 30 64
E 43 31 32
E 43 32 37
E 43 33 67
E 43 34 64
E 43 35 57
E 43 36 58
E 43 37 49
E 43 38 49
E 43 39 72
E 43 40 58
E 43 41 47
E 43 42 56
E 44 1 37
E 44 2 38
E 44 3 53
E 44 4 14
E 44 5 18
E 44 6 33
E 44 7 49
E 44 8 47
E 44 9 28
E 44 10 21
E 44 11 28
E 44 12 17
E 44 13 26
E 44 14 32
E 44 15 6
E 44 16 34
E 44 17 8
E 44 18 22
E 44 19 17
E 44 20 50
E 44 21 41
E 44 22 43
E 44 23 44
E 44 24 43
E 44 25 32
E 44 26 53
E 44 27 33
E 44 28 53
E 44 29 43
E 44 30 30
E 44 31 54
E 44 32 32
E 44 33 16
E 44 34 35
E 44 35 57
E 44 36 63
E 44 37 7
E 44 38 25
E 44 39 29
E 44 40 26
E 44 41 20
E 44 42 10
E 44 43 55
E 45 1 42
E 45 2 40
E 45 3 55
E 45 4 24
E 45 5 20
E 45 6 41
E 45 7 57
E 45 8 52
E 45 9 26
E 45 10 16
E 45 11 31
E 45 12 23
E 45 13 37
E 45 14 41
E 45 15 6
E 45 16 33
E 45 17 17
E 45 18 31
E 45 19 26
E 45 20 51
E 45 21 39
E 45 22 47
E 45 23 52
E 45 24 52
E 45 25 42
E 45 26 59
E 45 27 39
E 45 28 57
E 45 29 42
E 45 30 25
E 45 31 59
E 45 32 36
E 45 33 7
E 45 34 31
E 45 35 57
E 45 36 63
E 45 37 13
E 45 38 25
E 45 39 20
E 45 40 34
E 45 41 29
E 45 42 18
E 45 43 63
E 45 44 10
E 46 1 13
E 46 2 19
E 46 3 32
E 46 4 17
E 46 5 12
E 46 6 13
E 46 7 28
E 46 8 23
E 46 9 20
E 46 10 26
E 46 11 10
E 46 12 7
E 46 13 30
E 46 14 20
E 46 15 23
E 46 16 20
E 46 17 16
E 46 18 16
E 46 19 32
E 46 20 31
E 46 21 30
E 46 22 20
E 46 23 24
E 46 24 27
E 46 25 25
E 46 26 29
E 46 27 9
E 46 28 30
E 46 29 27
E 46 30 28
E 46 31 30
E 46 32 9
E 46 33 32
E 46 34 29
E 46 35 38
E 46 36 43
E 46 37 17
E 46 38 13
E 46 39 36
E 46 40 42
E 46 41 31
E 46 42 31
E 46 43 36
E 46 44 24
E 46 45 29
E 47 1 23
E 47 2 29
E 47 3 41
E 47 4 7
E 47 5 15
E 47 6 15
E 47 7 32
E 47 8 30
E 47 9 27
E 47 10 28
E 47 11 19
E 47 12 6
E 47 13 21
E 47 14 16
E 47 15 19
E 47 16 28
E 47 17 9
E 47 18 8
E 47 19 22
E 47 20 41
E 47 21 38
E 47 22 30
E 47 23 26
E 47 24 26
E 47 25 18
E 47 26 36
E 47 27 16
E 47 28 39
E 47 29 36
E 47 30 33
E 47 31 38
E 47 32 19
E 47 33 30
E 47 34 36
E 47 35 48
E 47 36 53
E 47 37 12
E 47 38 20
E 47 39 38
E 47 40 32
E 47 41 21
E 47 42 22
E 47 43 37
E 47 44 17
E 47 45 26
E 47 46 9
E 48 1 12
E 48 2 24
E 48 3 28
E 48 4 29
E 48 5 29
E 48 6 8
E 48 7 11
E 48 8 9
E 48 9 34
E 48 10 42
E 48 11 22
E 48 12 23
E 48 13 36
E 48 14 18
E 48 15 40
E 48 16 30
E 48 17 32
E 48 18 23
E 48 19 43
E 48 20 32
E 48 21 39
E 48 22 17
E 48 23 9
E 48 24 17
E 48 25 24
E 48 26 13
E 48 27 8
E 48 28 21
E 48 29 33
E 48 30 43
E 48 31 18
E 48 32 15
E 48 33 49
E 48 34 42
E 48 35 37
E 48 36 40
E 48 37 33
E 48 38 28
E 48 39 52
E 48 40 52
E 48 41 40
E 48 42 45
E 48 43 21
E 48 44 40
E 48 45 47
E 48 46 17
E 48 47 23
E 49 1 26
E 49 2 21
E 49 3 36
E 49 4 28
E 49 5 8
E 49 6 33
E 49 7 46
E 49 8 38
E 49 9 6
E 49 10 7
E 49 11 14
E 49 12 17
E 49 13 43
E 49 14 38
E 49 15 16
E 49 16 13
E 49 17 21
E 49 18 31
E 49 19 38
E 49 20 31
E 49 21 19
E 49 22 29
E 49 23 43
E 49 24 46
E 49 25 42
E 49 26 45
E 49 27 26
E 49 28 39
E 49 29 22
E 49 30 10
E 49 31 42
E 49 32 20
E 49 33 18
E 49 34 13
E 49 35 37
E 49 36 43
E 49 37 17
E 49 38 7
E 49 39 17
E 49 40 48
E 49 41 39
E 49 42 32
E 49 43 56
E 49 44 22
E 49 45 20
E 49 46 19
E 49 47 23
E 49 48 35
E 50 1 24
E 50 2 13
E 50 3 27
E 50 4 37
E 50 5 17
E 50 6 36
E 50 7 46
E 50 8 35
E 50 9 5
E 50 10 16
E 50 11 14
E 50 12 25
E 50 13 52
E 50 14 44
E 50 15 29
E 50 16 5
E 50 17 32
E 50 18 39
E 50 19 49
E 50 20 21
E 50 21 7
E 50 22 24
E 50 23 44
E 50 24 50
E 50 25 49
E 50 26 42
E 50 27 28
E 50 28 32
E 50 29 11
E 50 30 10
E 50 31 37
E 50 32 20
E 50 33 28
E 50 34 6
E 50 35 26
E 50 36 32
E 50 37 28
E 50 38 11
E 50 39 22
E 50 40 59
E 50 41 50
E 50 42 44
E 50 43 57
E 50 44 34
E 50 45 31
E 50 46 24
E 50 47 31
E 50 48 35
E 50 49 12
E 51 1 13
E 51 2 21
E 51 3 32
E 51 4 17
E 51 5 14
E 51 6 11
E 51 7 26
E 51 8 22
E 51 9 23
E 51 10 28
E 51 11 12
E 51 12 8
E 51 13 29
E 51 14 18
E 51 15 24
E 51 16 22
E 51 17 17
E 51 18 14
E 51 19 31
E 51 20 32
E 51 21 32
E 51 22 20
E 51 23 22
E 51 24 25
E 51 25 23
E 51 26 28
E 51 27 8
E 51 28 29
E 51 29 29
E 51 30 30
E 51 31 29
E 51 32 10
E 51 33 34
E 51 34 31
E 51 35 39
E 51 36 43
E 51 37 18
E 51 38 15
E 51 39 38
E 51 40 42
E 51 41 30
E 51 42 31
E 51 43 34
E 51 44 25
E 51 45 31
E 51 46 2
E 51 47 9
E 51 48 15
E 51 49 21
E 51 50 26
END

SECTION StochasticProbabilities
SP 0.03 0.22 0.39 0.07 0.29
END

SECTION StochasticWeights
SE 15 12 14 14 15
SE 22 19 24 19 22
SE 15 17 18 16 15
SE 36 37 32 38 37
SE 47 45 45 47 40
SE 50 62 55 62 51
SE 26 24 23 28 22
SE 23 21 23 21 24
SE 36 42 44 43 37
SE 20 21 25 25 20
SE 16 19 19 17 19
SE 30 33 30 33 28
SE 42 45 43 43 39
SE 22 22 27 23 22
SE 28 26 26 30 25
SE 22 24 26 23 25
SE 37 43 38 43 38
SE 38 37 42 38 35
SE 41 37 45 48 38
SE 44 46 44 41 43
SE 18 17 19 19 17
SE 12 11 14 13 13
SE 23 24 24 22 23
SE 23 26 24 21 26
SE 42 39 37 42 40
SE 40 36 35 37 37
SE 21 18 23 19 22
SE 16 14 14 17 17
SE 28 29 31 25 24
SE 17 18 17 16 17
SE 38 35 34 36 31
SE 38 35 39 35 36
SE 12 12 13 13 12
SE 40 37 44 43 34
SE 57 56 57 47 52
SE 36 37 43 43 40
SE 38 41 42 36 42
SE 29 34 32 28 30
SE 47 46 47 51 45
SE 34 31 36 33 32
SE 15 17 14 16 14
SE 43 42 47 48 50
SE 67 58 70 62 63
SE 52 49 56 52 53
SE 12 14 12 12 12
SE 12 14 13 13 12
SE 11 11 11 12 10
SE 30 29 25 28 27
SE 31 29 29 29 32
SE 11 11 11 14 13
SE 21 27 24 24 23
SE 39 38 37 37 39
SE 26 24 23 26 29
SE 12 14 15 14 12
SE 21 21 22 22 25
SE 20 25 20 25 21
SE 25 28 31 26 24
SE 48 39 44 40 42
SE 13 12 15 13 14
SE 10 10 9 11 10
SE 22 19 18 20 19
SE 44 41 38 38 37
SE 31 33 37 36 33
SE 23 23 26 21 26
SE 26 24 24 27 24
SE 15 16 18 15 15
SE 47 43 50 49 41
SE 61 53 64 59 62
SE 76 69 78 76 74
SE 16 16 17 16 19
SE 42 42 38 44 43
SE 28 29 32 33 32
SE 42 45 39 46 48
SE 56 55 58 51 50
SE 50 60 57 60 47
SE 48 47 52 52 48
SE 48 47 45 42 46
SE 29 33 30 26 33
SE 27 29 26 29 27
SE 45 37 38 46 46
SE 54 51 56 50 55
SE 17 21 19 17 19
SE 33 31 30 33 36
SE 10 11 10 10 10
SE 27 21 26 21 24
SE 27 34 35 30 27
SE 46 43 44 51 50
SE 53 55 54 55 47
SE 35 34 33 31 31
SE 23 25 21 24 25
SE 22 20 18 19 18
SE 46 43 37 38 45
SE 42 39 36 45 44
SE 57 61 58 54 57
SE 18 22 20 20 20
SE 17 17 16 16 14
SE 40 43 35 38 41
SE 58 57 50 60 52
SE 59 55 57 59 55
SE 29 24 24 24 27
SE 18 17 17 18 17
SE 27 29 30 32 29
SE 18 20 20 16 20
SE 33 36 39 35 34
SE 38 37 38 44 45
SE 18 20 21 19 18
SE 8 9 8 9 9
SE 27 28 29 24 23
SE 37 38 39 35 41
SE 16 20 16 18 19
SE 32 32 36 38 34
SE 42 45 49 47 51
SE 33 37 30 33 32
SE 9 8 8 8 9
SE 20 25 22 24 21
SE 12 12 12 11 10
SE 23 25 27 23 26
SE 60 63 60 62 53
SE 48 44 46 42 44
SE 34 36 31 37 36
SE 30 35 37 33 30
SE 43 43 42 36 34
SE 56 49 49 51 56
SE 7 7 7 8 9
SE 16 18 18 14 15
SE 29 28 28 27 27
SE 49 51 52 48 50
SE 42 46 46 49 43
SE 29 33 29 31 28
SE 30 28 26 28 26
SE 25 29 24 24 27
SE 10 11 11 11 9
SE 24 22 23 22 22
SE 27 30 26 29 29
SE 11 12 11 11 11
SE 38 34 30 33 35
SE 33 33 29 30 27
SE 38 36 42 42 41
SE 52 58 59 53 50
SE 8 7 8 8 8
SE 23 23 28 29 27
SE 17 15 16 17 14
SE 33 33 37 35 30
SE 39 38 33 39 32
SE 44 44 44 38 44
SE 42 41 39 36 45
SE 32 29 27 33 29
SE 14 14 17 14 15
SE 16 17 15 16 14
SE 11 12 10 10 10
SE 31 27 26 28 30
SE 43 42 39 45 41
SE 17 14 14 16 14
SE 54 57 52 54 53
SE 52 52 59 59 59
SE 77 68 82 74 67
SE 15 14 16 15 15
SE 35 35 32 31 33
SE 34 37 39 37 39
SE 56 55 51 61 55
SE 55 63 59 60 63
SE 54 46 44 46 54
SE 42 48 46 45 45
SE 48 43 40 43 48
SE 33 32 28 28 29
SE 17 14 15 16 16
SE 35 37 32 31 31
SE 23 28 28 26 23
SE 61 55 61 59 60
SE 20 21 19 20 17
SE 25 21 24 23 20
SE 24 20 21 21 21
SE 14 14 13 13 14
SE 7 8 8 8 8
SE 55 55 61 48 60
SE 37 40 34 33 33
SE 47 43 40 43 45
SE 41 40 40 49 41
SE 26 30 30 28 28
SE 27 28 25 27 25
SE 37 44 39 44 39
SE 24 24 24 26 27
SE 37 37 38 37 44
SE 73 75 78 70 68
SE 56 58 48 54 52
SE 57 53 52 58 55
SE 21 19 18 19 20
SE 57 49 55 58 49
SE 47 58 48 54 48
SE 71 78 69 73 72
SE 28 27 33 28 32
SE 17 15 15 15 14
SE 29 26 30 26 25
SE 47 47 54 55 45
SE 31 29 26 26 29
SE 49 53 44 42 48
SE 63 62 53 55 60
SE 37 36 37 42 38
SE 15 14 14 16 14
SE 28 25 27 25 27
SE 21 20 25 20 20
SE 37 32 33 37 35
SE 69 76 67 60 76
SE 64 63 51 63 55
SE 40 38 36 42 36
SE 11 11 12 12 10
SE 40 46 39 43 45
SE 45 56 48 54 53
SE 65 66 58 57 59
SE 20 19 16 20 16
SE 8 8 8 9 7
SE 12 12 11 11 11
SE 12 13 12 12 14
SE 45 48 39 44 41
SE 27 27 28 33 28
SE 27 28 28 23 28
SE 29 26 25 27 31
SE 12 12 12 13 13
SE 28 28 27 30 31
SE 42 44 46 45 39
SE 17 18 16 18 20
SE 31 33 28 33 29
SE 49 60 50 52 56
SE 37 38 42 41 33
SE 46 50 46 51 52
SE 18 19 21 21 20
SE 38 46 47 43 39
SE 35 34 38 34 38
SE 60 66 56 60 56
SE 17 18 15 16 16
SE 29 25 29 26 25
SE 22 22 27 26 23
SE 37 37 34 36 35
SE 37 36 42 38 43
SE 34 32 35 33 32
SE 36 36 45 37 46
SE 11 14 12 12 13
SE 7 6 7 7 7
SE 15 18 15 19 16
SE 55 51 52 45 50
SE 64 57 56 63 52
SE 37 37 34 37 32
SE 31 29 36 30 31
SE 36 39 38 34 40
SE 17 17 18 18 16
SE 48 55 48 48 57
SE 49 45 45 50 47
SE 44 39 38 38 39
SE 30 30 31 31 28
SE 52 45 44 52 47
SE 44 45 48 46 51
SE 58 55 48 57 57
SE 28 26 29 29 27
SE 31 35 34 30 35
SE 43 49 43 44 52
SE 54 53 51 54 54
SE 34 33 33 35 29
SE 44 40 48 38 43
SE 15 14 14 15 16
SE 16 17 16 17 14
SE 29 29 28 27 29
SE 52 49 49 56 51
SE 63 66 63 63 53
SE 43 39 42 36 43
SE 38 37 37 30 34
SE 29 29 32 30 33
SE 10 10 12 11 10
SE 58 56 47 51 48
SE 50 45 54 55 50
SE 36 44 36 41 43
SE 27 24 25 27 25
SE 44 41 39 44 46
SE 53 59 63 50 62
SE 57 60 60 62 56
SE 38 40 41 37 42
SE 10 10 9 11 9
SE 39 38 34 34 39
SE 47 49 44 48 43
SE 63 57 54 62 61
SE 17 21 17 17 20
SE 33 40 41 38 34
SE 16 18 19 20 19
SE 31 27 29 32 28
SE 42 35 39 38 37
SE 52 51 54 49 47
SE 53 53 52 55 58
SE 38 35 39 40 44
SE 29 25 26 29 27
SE 13 13 13 16 16
SE 6 6 6 6 7
SE 45 41 42 45 37
SE 53 50 50 50 47
SE 29 28 31 25 31
SE 12 12 11 13 12
SE 28 31 26 25 26
SE 57 64 61 54 61
SE 69 56 56 59 68
SE 47 46 41 39 43
SE 25 25 22 25 26
SE 14 17 16 15 16
SE 21 22 22 21 22
SE 32 32 30 30 36
SE 25 32 31 27 27
SE 50 51 53 44 53
SE 46 42 46 42 51
SE 21 25 23 23 24
SE 11 13 12 11 12
SE 7 8 7 7 9
SE 53 46 46 55 53
SE 59 55 60 62 64
SE 31 33 34 38 38
SE 39 37 45 44 37
SE 61 56 51 50 62
SE 36 31 36 36 34
SE 58 60 54 57 60
SE 43 40 40 44 45
SE 48 57 52 45 54
SE 42 43 38 45 46
SE 67 68 65 58 65
SE 40 38 35 35 32
SE 50 50 47 48 48
SE 19 23 19 18 19
SE 18 19 18 17 17
SE 27 26 26 27 27
SE 39 45 45 38 44
SE 9 8 10 9 10
SE 20 24 19 21 19
SE 29 33 30 31 31
SE 29 28 28 29 27
SE 21 22 21 20 20
SE 9 9 11 11 9
SE 21 22 23 22 23
SE 16 17 17 16 15
SE 27 33 26 28 32
SE 42 41 41 39 42
SE 14 14 13 13 15
SE 17 19 19 16 20
SE 34 35 39 37 38
SE 18 19 19 18 20
SE 34 38 37 39 35
SE 25 29 27 25 26
SE 30 30 30 26 27
SE 19 19 22 23 24
SE 44 45 43 44 43
SE 34 33 36 30 36
SE 41 33 38 40 36
SE 15 18 18 15 18
SE 19 20 17 17 20
SE 28 25 27 22 25
SE 25 28 32 29 29
SE 21 24 24 23 23
SE 20 18 16 19 16
SE 18 23 18 20 23
SE 11 10 10 10 11
SE 58 60 51 47 59
SE 39 43 44 44 38
SE 29 33 37 37 32
SE 27 26 33 30 27
SE 14 13 15 14 16
SE 39 39 37 39 36
SE 54 46 47 52 47
SE 26 31 31 30 28
SE 47 38 40 47 45
SE 67 71 57 66 67
SE 41 44 43 47 41
SE 60 58 54 56 51
SE 32 29 32 28 32
SE 54 53 47 53 47
SE 53 53 47 48 50
SE 67 64 68 72 74
SE 20 18 19 17 17
SE 33 34 39 37 33
SE 11 10 11 12 10
SE 35 31 30 29 29
SE 40 49 38 38 44
SE 49 52 53 53 47
SE 16 20 20 18 19
SE 25 24 24 29 24
SE 24 23 23 21 21
SE 10 9 10 9 9
SE 21 17 21 18 21
SE 48 43 50 51 55
SE 25 28 28 27 28
SE 42 39 41 43 43
SE 46 47 55 46 50
SE 36 30 38 34 38
SE 19 20 18 17 17
SE 27 33 31 27 27
SE 21 21 18 18 17
SE 38 34 35 33 40
SE 61 73 71 68 70
SE 53 58 49 47 49
SE 46 40 43 45 45
SE 11 9 11 11 9
SE 45 49 49 46 39
SE 43 51 49 52 46
SE 59 66 71 60 71
SE 10 11 12 10 12
SE 7 9 8 8 8
SE 20 19 22 22 19
SE 50 53 42 45 48
SE 62 60 51 63 58
SE 64 56 65 65 63
SE 44 46 43 45 39
SE 29 32 34 31 32
SE 24 29 27 30 25
SE 35 38 39 39 37
SE 26 28 28 25 29
SE 39 45 37 41 40
SE 45 39 41 48 47
SE 18 21 20 21 18
SE 44 46 54 52 53
SE 60 69 60 65 65
SE 44 44 47 45 56
SE 9 10 8 9 8
SE 11 9 11 10 11
SE 21 26 21 23 27
SE 33 27 34 29 29
SE 54 56 65 58 64
SE 55 62 60 50 49
SE 24 24 24 29 25
SE 17 15 18 16 16
SE 33 39 32 32 32
SE 52 48 42 49 43
SE 53 51 56 52 51
SE 37 33 40 34 31
SE 19 19 15 17 17
SE 36 38 38 38 36
SE 64 58 58 64 61
SE 61 56 65 58 70
SE 65 62 54 56 66
SE 59 54 65 57 55
SE 36 44 41 36 42
SE 47 53 46 42 50
SE 22 22 25 24 21
SE 20 18 18 20 19
SE 28 24 25 26 27
SE 19 15 17 17 16
SE 59 58 48 49 46
SE 39 41 43 48 44
SE 30 30 33 30 31
SE 23 22 21 24 20
SE 9 11 9 10 9
SE 49 46 46 46 42
SE 64 60 53 51 52
SE 32 35 33 28 34
SE 43 37 38 42 44
SE 64 64 58 62 61
SE 45 40 44 45 44
SE 56 53 53 56 67
SE 31 34 38 38 35
SE 48 57 58 57 56
SE 48 44 46 50 51
SE 64 63 74 68 67
SE 22 27 26 26 22
SE 41 40 46 44 37
SE 15 16 13 13 16
SE 29 29 26 25 31
SE 38 38 35 42 42
SE 50 52 53 54 46
SE 11 12 10 10 12
SE 24 23 26 25 27
SE 6 6 7 6 7
SE 36 35 29 35 31
SE 48 56 54 50 55
SE 6 6 6 6 6
SE 12 11 13 11 12
SE 22 28 28 25 26
SE 31 28 27 33 30
SE 19 18 19 18 18
SE 17 19 19 18 20
SE 30 34 33 29 33
SE 17 17 17 21 18
SE 19 19 22 20 22
SE 29 35 28 31 31
SE 7 6 7 7 7
SE 17 19 15 17 17
SE 39 41 47 48 44
SE 28 28 28 30 26
SE 33 30 38 35 31
SE 14 17 17 14 14
SE 25 31 26 31 31
SE 27 28 30 29 27
SE 44 50 45 42 45
SE 23 26 27 24 23
SE 30 25 31 27 27
SE 14 14 11 11 13
SE 30 25 26 25 26
SE 37 35 38 34 32
SE 34 38 32 32 35
SE 27 29 24 25 26
SE 8 8 10 10 8
SE 22 22 24 25 26
SE 20 20 21 25 22
SE 29 29 33 30 29
SE 25 25 23 29 29
SE 47 43 47 49 54
SE 45 41 42 42 48
SE 64 60 65 56 69
SE 31 34 36 36 38
SE 20 22 23 20 20
SE 50 49 50 49 51
SE 74 66 77 65 76
SE 54 57 55 65 67
SE 28 26 29 28 27
SE 12 15 15 13 14
SE 39 38 39 40 35
SE 29 26 27 28 29
SE 48 55 51 53 51
SE 57 57 49 48 54
SE 12 11 13 12 12
SE 32 37 31 31 34
SE 28 23 26 24 26
SE 42 40 39 47 41
SE 40 42 42 42 35
SE 53 49 59 49 58
SE 42 37 38 37 44
SE 47 52 60 57 48
SE 61 66 68 62 56
SE 71 65 61 71 59
SE 57 48 49 52 52
SE 62 70 72 78 72
SE 44 41 52 46 51
SE 57 69 65 65 61
SE 46 47 49 40 50
SE 25 21 22 25 23
SE 67 71 72 70 66
SE 45 37 43 43 38
SE 32 34 36 38 31
SE 25 25 24 23 23
SE 35 36 36 39 35
SE 50 48 46 43 48
SE 24 25 24 22 26
SE 47 48 45 54 52
SE 60 59 56 68 57
SE 52 46 48 51 46
SE 10 10 11 11 9
SE 18 15 17 16 19
SE 25 23 25 24 23
SE 34 31 30 31 30
SE 68 57 71 60 68
SE 59 62 60 51 54
SE 33 35 35 31 38
SE 14 12 14 13 12
SE 43 40 38 36 44
SE 56 45 45 45 51
SE 52 62 52 64 61
SE 32 30 26 25 28
SE 9 11 10 11 10
SE 32 35 37 35 36
SE 53 54 59 65 65
SE 56 59 68 72 60
SE 60 60 63 68 54
SE 55 60 55 48 58
SE 35 36 34 40 37
SE 45 46 48 42 39
SE 16 17 16 16 18
SE 6 7 7 6 7
SE 48 48 45 55 45
SE 30 33 30 31 28
SE 33 30 27 28 33
SE 27 27 28 29 31
SE 24 19 21 21 23
SE 11 11 10 11 11
SE 63 55 66 61 63
SE 43 47 40 43 42
SE 52 53 55 53 51
SE 47 58 51 49 46
SE 33 32 39 35 32
SE 31 39 37 39 31
SE 44 53 48 54 46
SE 31 33 34 34 30
SE 51 54 43 44 55
SE 87 87 68 70 80
SE 57 69 59 66 54
SE 64 63 67 57 60
SE 24 25 28 25 29
SE 57 59 55 60 61
SE 67 54 69 68 66
SE 87 71 85 73 79
SE 7 8 8 8 9
SE 24 22 26 25 26
SE 22 25 23 20 25
SE 51 51 49 47 49
SE 67 70 62 57 59
SE 70 74 73 70 64
SE 40 40 41 43 35
SE 39 44 36 42 44
SE 22 20 22 23 20
SE 18 17 15 16 16
SE 45 40 46 42 42
SE 30 26 28 25 29
SE 32 34 32 37 36
SE 58 63 57 70 55
SE 34 38 37 31 30
SE 37 32 35 39 38
SE 27 24 26 29 26
SE 14 13 13 13 13
SE 74 69 70 65 68
SE 55 56 55 51 48
SE 50 53 50 47 49
SE 49 51 58 57 51
SE 38 39 40 34 34
SE 43 37 43 43 38
SE 58 50 63 51 59
SE 35 44 41 43 40
SE 54 59 48 59 53
SE 92 72 83 84 82
SE 67 68 65 68 58
SE 75 61 62 60 63
SE 33 32 30 37 31
SE 71 61 62 69 66
SE 74 68 74 72 69
SE 87 86 95 91 90
SE 14 12 14 14 14
SE 32 33 33 27 28
SE 25 26 24 27 27
SE 55 54 57 54 50
SE 70 70 64 62 62
SE 64 70 64 64 78
SE 42 41 36 40 39
SE 50 45 44 50 39
SE 21 23 22 21 23
SE 26 25 25 25 22
SE 50 44 49 51 44
SE 27 28 31 27 29
SE 34 34 34 38 33
SE 62 78 75 61 76
SE 45 40 42 41 44
SE 7 7 7 7 7
SE 36 32 31 37 31
SE 34 32 31 36 31
SE 52 59 50 54 56
SE 12 12 14 12 13
SE 12 14 13 11 14
SE 31 27 32 30 31
SE 53 52 53 54 44
SE 46 43 49 40 42
SE 27 23 23 22 23
SE 23 19 19 22 21
SE 21 25 24 26 25
SE 10 10 12 12 11
SE 29 31 28 29 30
SE 35 35 32 29 35
SE 8 8 7 7 7
SE 29 33 29 31 30
SE 5 6 5 6 5
SE 21 21 23 20 22
SE 25 27 22 22 23
SE 43 43 50 53 54
SE 45 41 37 44 44
SE 38 46 43 37 44
SE 48 48 38 40 49
SE 47 38 41 47 46
SE 35 36 37 34 31
SE 51 46 52 58 49
SE 30 27 29 31 30
SE 46 56 57 47 46
SE 44 41 37 40 37
SE 28 29 33 29 32
SE 59 50 48 48 55
SE 27 26 24 24 29
SE 22 20 18 20 20
SE 38 31 31 33 35
SE 61 64 59 57 53
SE 68 71 59 66 64
SE 18 19 22 18 22
SE 17 16 14 17 15
SE 36 31 36 31 31
SE 26 32 32 32 27
SE 7 8 8 7 7
SE 27 27 30 28 29
SE 46 47 42 42 46
SE 36 38 30 30 38
SE 8 8 7 7 8
SE 18 15 15 18 18
SE 6 6 6 6 7
SE 15 14 15 15 15
SE 41 41 45 41 47
SE 39 37 39 41 35
SE 21 26 22 23 23
SE 10 9 10 10 11
SE 23 23 22 24 23
SE 30 29 28 36 36
SE 48 48 48 38 40
SE 25 29 31 32 29
SE 20 19 20 23 20
SE 26 27 28 24 25
SE 46 43 41 46 38
SE 50 48 50 51 50
SE 41 47 38 47 48
SE 42 37 37 42 38
SE 23 23 19 22 22
SE 33 35 32 38 35
SE 21 20 22 20 22
SE 18 15 19 19 17
SE 35 43 35 38 36
SE 13 16 16 14 13
SE 30 31 29 27 25
SE 16 19 18 17 20
SE 33 32 38 41 39
SE 39 46 43 41 46
SE 20 19 20 18 22
SE 49 44 54 49 43
SE 39 45 42 44 44
SE 50 50 51 61 52
SE 47 46 50 51 48
SE 29 25 28 24 25
SE 52 55 50 57 51
SE 79 66 71 63 77
SE 67 64 56 68 60
SE 20 21 20 22 19
SE 10 11 11 10 11
SE 39 36 39 32 37
SE 37 34 39 37 38
SE 54 60 70 63 57
SE 56 65 61 57 55
SE 27 27 27 24 24
SE 26 30 30 29 30
SE 36 41 34 35 38
SE 51 45 51 52 57
SE 57 57 49 49 53
SE 48 55 50 51 45
SE 28 33 34 28 27
SE 47 54 51 52 46
SE 67 66 74 63 74
SE 74 72 73 68 73
SE 58 63 64 59 56
SE 61 71 62 67 65
SE 48 45 45 54 54
SE 66 59 56 59 63
SE 40 39 36 33 35
SE 14 15 12 15 12
SE 58 58 67 75 60
SE 41 44 45 46 42
SE 15 16 15 14 16
SE 22 21 20 18 22
SE 49 55 60 58 58
SE 65 56 68 57 59
SE 31 29 35 34 33
SE 25 26 27 28 29
SE 59 69 70 56 64
SE 64 70 77 70 70
SE 83 80 74 84 78
SE 28 31 25 25 27
SE 47 53 49 43 43
SE 48 44 50 47 48
SE 69 69 69 63 75
SE 70 74 72 62 73
SE 69 61 55 60 67
SE 52 53 60 52 56
SE 50 64 50 57 55
SE 44 37 42 38 40
SE 20 20 22 21 19
SE 43 45 44 44 40
SE 32 38 36 36 39
SE 72 73 72 71 59
SE 34 30 32 32 29
SE 33 30 32 33 29
SE 10 10 11 10 11
SE 74 92 89 89 82
SE 68 67 67 69 81
SE 67 70 79 71 77
SE 58 61 52 61 57
SE 50 49 46 51 47
SE 33 32 40 34 32
SE 81 72 77 75 80
SE 48 56 57 48 59
SE 82 72 72 80 81
SE 79 70 75 79 81
SE 65 60 71 61 70
SE 84 83 89 71 76
SE 61 53 54 58 61
SE 41 52 48 43 48
SE 73 68 66 77 71
SE 82 97 102 99 83
SE 89 103 92 96 96
SE 33 33 39 36 37
SE 50 63 50 52 54
SE 70 54 67 69 54
SE 45 48 56 53 56
SE 50 57 62 50 55
SE 79 63 80 64 77
SE 14 16 15 15 13
SE 41 35 39 39 35
SE 36 36 37 40 33
SE 54 55 47 59 57
SE 58 62 54 56 56
SE 44 53 48 49 54
SE 50 47 47 51 48
SE 41 42 43 40 44
SE 32 31 30 28 27
SE 11 10 10 10 11
SE 29 29 25 31 32
SE 32 28 32 29 31
SE 48 56 57 48 56
SE 18 19 19 20 18
SE 19 19 19 19 19
SE 5 6 5 5 6
SE 70 73 67 77 74
SE 63 62 73 57 69
SE 55 59 65 52 55
SE 43 46 44 40 46
SE 35 36 43 44 43
SE 21 22 22 26 27
SE 58 65 56 57 57
SE 44 38 37 42 43
SE 66 70 72 65 75
SE 70 57 58 64 73
SE 59 59 58 61 59
SE 68 65 60 62 67
SE 47 46 50 43 44
SE 42 36 42 45 38
SE 56 61 59 58 65
SE 73 84 83 82 70
SE 93 96 85 83 79
SE 24 22 25 25 27
SE 44 43 47 40 44
SE 56 55 57 50 54
SE 12 12 15 14 12
SE 45 48 55 47 50
SE 55 56 57 58 59
SE 79 71 65 69 71
SE 16 20 18 19 20
SE 33 31 31 27 34
SE 42 40 42 43 38
SE 55 67 55 54 61
SE 54 63 52 55 52
SE 46 42 41 49 45
SE 39 39 39 34 33
SE 47 43 44 44 39
SE 29 26 27 25 26
SE 26 21 23 23 24
SE 33 34 42 37 34
SE 19 18 18 19 18
SE 46 47 47 48 44
SE 14 16 15 14 15
SE 24 26 27 25 28
SE 8 10 10 10 9
SE 69 73 60 75 61
SE 62 54 63 57 66
SE 56 60 55 53 65
SE 60 48 48 47 52
SE 45 47 45 45 47
SE 31 31 34 36 36
SE 73 73 60 61 62
SE 48 46 41 48 49
SE 63 74 71 73 63
SE 62 54 64 55 53
SE 44 49 48 41 43
SE 73 66 63 75 71
SE 40 39 44 43 48
SE 26 26 28 26 28
SE 46 53 58 50 52
SE 86 69 84 73 81
SE 87 92 88 83 82
SE 19 19 20 18 20
SE 35 41 43 34 34
SE 43 40 47 45 39
SE 20 16 19 18 17
SE 13 15 14 15 14
SE 42 42 39 36 38
SE 55 55 46 48 49
SE 57 58 59 58 53
SE 41 51 43 51 47
SE 49 48 58 59 51
SE 23 25 23 27 23
SE 14 14 13 12 14
SE 30 29 28 31 27
SE 59 65 58 67 59
SE 66 73 76 69 62
SE 44 51 49 51 50
SE 42 42 51 45 45
SE 39 47 43 44 50
SE 25 25 27 24 24
SE 71 69 69 61 67
SE 58 60 65 58 64
SE 54 54 54 51 46
SE 42 36 40 35 35
SE 63 60 56 55 64
SE 65 66 55 63 62
SE 77 77 72 73 62
SE 37 40 37 47 37
SE 13 14 16 13 16
SE 12 12 15 13 14
SE 32 27 28 30 32
SE 23 23 25 26 22
SE 29 33 32 30 29
SE 43 39 49 49 40
SE 60 56 60 60 62
SE 76 79 75 64 70
SE 36 34 39 34 37
SE 47 43 46 37 38
SE 72 71 86 74 76
SE 72 64 80 73 66
SE 71 70 70 62 72
SE 68 70 74 61 61
SE 60 58 61 52 53
SE 58 53 53 54 57
SE 91 83 77 78 84
SE 62 62 72 73 71
SE 51 50 58 50 58
SE 71 64 69 67 70
SE 42 46 47 37 46
SE 39 44 43 42 38
SE 58 66 64 53 57
SE 15 17 14 15 15
SE 19 22 18 22 19
SE 41 37 39 40 42
SE 59 57 61 57 53
SE 52 58 54 47 60
SE 30 28 33 35 31
SE 22 26 22 23 26
SE 33 35 33 34 29
SE 17 19 21 19 17
SE 32 28 27 31 28
SE 36 32 32 39 40
SE 6 6 6 6 7
SE 43 35 40 37 42
SE 9 10 9 8 9
SE 25 22 27 22 25
SE 21 18 18 18 20
SE 61 55 50 53 62
SE 41 49 51 42 47
SE 45 46 43 52 55
SE 51 44 52 49 45
SE 46 54 47 53 50
SE 35 37 38 34 36
SE 66 58 57 62 61
SE 38 40 37 39 38
SE 54 65 66 53 65
SE 44 49 45 46 44
SE 36 34 34 33 31
SE 68 63 66 61 57
SE 41 35 41 38 32
SE 18 19 16 19 18
SE 45 40 44 36 39
SE 64 64 68 61 65
SE 71 65 70 64 78
SE 8 8 8 7 7
SE 30 25 28 25 30
SE 36 31 30 33 31
SE 26 29 31 33 32
SE 23 21 21 23 22
SE 11 12 12 10 10
SE 61 65 65 61 57
SE 44 43 53 48 50
SE 47 42 40 47 41
SE 56 63 57 68 60
SE 29 27 25 28 26
SE 21 22 22 21 23
SE 46 46 45 44 49
SE 66 65 68 66 67
SE 65 52 54 56 61
SE 27 28 29 27 29
SE 18 19 16 20 19
SE 32 31 34 37 32
SE 23 29 24 25 29
SE 38 46 40 39 40
SE 41 44 48 41 41
SE 6 7 6 7 6
SE 34 37 34 34 35
SE 19 19 21 19 21
SE 35 37 39 36 36
SE 31 29 33 32 32
SE 58 58 54 65 53
SE 46 42 49 41 49
SE 55 54 50 49 59
SE 57 56 67 54 60
SE 56 62 52 64 56
SE 50 43 53 45 45
SE 68 60 63 61 59
SE 49 39 42 42 48
SE 69 73 63 73 62
SE 49 51 43 42 43
SE 29 28 26 27 28
SE 61 59 72 59 69
SE 40 42 37 41 39
SE 7 8 8 8 8
SE 36 36 34 38 35
SE 70 59 63 71 67
SE 68 76 73 67 75
SE 14 13 14 15 13
SE 31 26 28 29 32
SE 20 24 22 22 24
SE 35 36 34 34 35
SE 32 33 29 36 33
SE 19 18 22 21 23
SE 75 64 72 65 80
SE 12 11 12 12 10
SE 14 13 16 15 14
SE 23 23 22 22 20
SE 32 40 32 39 33
SE 19 19 19 20 17
SE 13 15 14 12 14
SE 13 15 16 16 16
SE 32 33 33 28 28
SE 24 25 28 29 25
SE 22 25 20 24 24
SE 31 31 30 26 26
SE 12 12 10 11 10
SE 7 8 8 7 7
SE 33 30 33 32 35
SE 25 22 20 24 21
SE 26 26 24 23 26
SE 24 23 22 21 21
SE 16 17 16 18 18
SE 18 17 20 16 19
SE 37 34 40 38 38
SE 36 39 31 38 33
SE 36 36 30 38 37
SE 20 24 25 23 21
SE 25 27 30 27 26
SE 30 30 29 27 29
SE 28 29 29 26 30
SE 34 34 34 35 30
SE 9 10 9 10 9
SE 35 31 31 32 33
SE 32 30 32 30 33
SE 34 32 32 35 33
SE 36 31 32 33 34
SE 9 11 9 11 11
SE 37 41 36 36 33
SE 33 37 34 32 36
SE 45 42 44 43 43
SE 44 44 52 51 48
SE 20 21 21 21 17
SE 15 14 13 16 16
SE 44 38 42 45 39
SE 45 44 54 50 49
SE 38 37 31 37 31
SE 37 32 34 34 34
SE 37 42 45 39 44
SE 30 24 27 27 27
SE 37 33 35 32 34
SE 29 25 26 27 24
SE 35 32 36 36 37
SE 52 47 48 43 50
SE 8 8 7 7 8
SE 15 16 15 19 17
SE 15 17 19 16 19
SE 37 38 38 37 32
SE 33 37 36 30 33
SE 34 31 34 31 34
SE 30 33 31 30 30
SE 19 22 24 23 19
SE 6 6 7 6 6
SE 22 23 21 25 25
SE 19 18 19 17 20
SE 21 20 22 19 22
SE 28 32 28 28 30
SE 10 11 9 9 9
SE 8 8 8 9 10
SE 24 23 27 23 25
SE 52 48 52 45 47
SE 48 49 41 44 39
SE 36 30 33 33 37
SE 29 28 30 30 27
SE 28 28 29 29 30
SE 20 23 18 19 18
SE 39 42 46 36 37
SE 17 18 16 18 19
SE 49 46 49 46 44
SE 43 41 36 44 43
SE 40 38 40 38 41
SE 39 43 38 48 47
SE 20 20 20 19 19
SE 37 31 33 36 30
SE 39 41 46 36 46
SE 52 55 56 54 57
SE 59 60 64 53 64
SE 13 15 14 13 12
SE 22 23 24 22 24
SE 44 47 43 40 41
SE 37 33 40 37 34
SE 27 24 24 22 26
SE 22 23 25 23 28
SE 44 43 38 42 43
SE 17 18 19 21 18
SE 30 31 26 26 33
SE 10 10 10 10 10
SE 13 14 14 12 13
SE 30 25 30 29 30
SE 35 35 36 31 34
SE 36 32 32 32 33
SE 37 33 34 29 35
SE 8 9 10 8 9
SE 11 14 13 13 13
SE 9 9 9 9 10
SE 43 36 39 43 38
SE 42 45 47 51 46
SE 23 25 25 28 22
SE 24 27 24 27 25
SE 37 42 42 39 46
SE 22 22 18 21 22
SE 49 45 47 46 49
SE 37 36 33 32 33
SE 36 41 36 38 39
SE 29 29 29 24 27
SE 44 51 50 49 43
SE 41 36 35 37 36
SE 44 46 40 42 49
SE 20 21 21 21 20
SE 9 11 9 9 9
SE 20 21 18 18 18
SE 29 30 31 29 29
SE 16 14 16 13 14
SE 8 9 9 9 10
SE 24 21 26 23 24
SE 35 37 41 42 34
SE 53 49 45 44 51
SE 21 23 20 22 22
SE 15 15 17 16 17
SE 62 63 50 54 59
SE 46 43 48 42 46
SE 46 42 46 47 41
SE 42 46 42 49 44
SE 36 38 40 36 38
SE 29 34 29 34 28
SE 52 67 52 55 57
SE 65 58 62 55 66
SE 40 46 46 47 49
SE 54 51 52 49 58
SE 22 22 22 26 21
SE 42 40 49 45 43
SE 58 47 58 53 55
SE 18 17 17 17 18
SE 25 26 29 23 25
SE 26 26 30 30 29
SE 23 26 27 26 25
SE 38 45 38 46 37
SE 33 35 34 33 31
SE 9 9 8 8 9
SE 35 37 39 38 34
SE 58 47 57 46 52
SE 44 46 48 48 45
SE 7 6 6 6 6
SE 8 8 7 8 7
SE 15 14 17 15 14
SE 17 20 17 18 17
SE 49 55 45 51 51
SE 47 39 47 44 42
SE 17 17 16 17 18
SE 16 14 13 13 13
SE 25 21 23 26 26
SE 35 34 35 33 35
SE 41 47 38 42 46
SE 35 38 33 32 35
SE 23 22 22 20 24
SE 32 35 37 29 34
SE 44 54 49 44 48
SE 47 55 51 58 53
SE 51 50 50 47 46
SE 49 50 48 49 46
SE 33 26 27 28 29
SE 48 44 49 44 40
SE 23 24 28 26 26
SE 12 11 10 10 11
SE 53 50 50 45 54
SE 23 22 22 22 22
SE 19 18 20 18 23
SE 14 16 15 14 15
SE 38 37 37 44 38
SE 44 50 55 43 43
SE 19 19 18 20 17
SE 7 8 7 7 7
SE 21 19 19 20 18
SE 56 59 55 60 51
SE 46 41 45 46 44
SE 38 34 40 37 34
SE 72 64 63 57 56
SE 22 28 22 28 27
SE 23 20 22 25 20
SE 21 24 23 24 24
SE 24 28 23 25 29
SE 35 45 41 45 45
SE 27 26 24 25 26
SE 15 14 16 16 15
SE 33 33 31 33 32
SE 45 48 39 38 46
SE 21 17 19 19 18
SE 36 46 39 45 38
SE 53 59 51 58 50
SE 41 36 41 42 45
SE 5 5 5 5 6
SE 17 20 16 20 16
SE 16 17 16 16 17
SE 30 26 28 32 32
SE 63 60 63 67 60
SE 47 51 47 52 50
SE 32 29 31 31 37
SE 6 6 6 6 5
SE 32 40 39 36 37
SE 46 49 49 46 48
SE 61 57 61 63 51
SE 26 26 21 25 22
SE 7 7 8 8 7
SE 24 25 26 26 24
SE 50 52 48 45 51
SE 50 56 53 52 52
SE 57 54 56 58 63
SE 48 45 53 50 53
SE 32 33 31 28 29
SE 37 37 35 33 32
SE 13 13 12 12 13
SE 11 11 10 12 11
SE 46 38 46 43 45
SE 24 25 25 22 22
SE 34 28 29 31 29
SE 7 6 7 7 7
SE 27 32 32 29 26
SE 38 38 38 34 41
SE 34 29 33 31 35
SE 13 14 13 12 12
SE 28 26 25 24 22
SE 69 75 74 68 68
SE 62 52 50 51 54
SE 47 56 51 45 47
SE 62 71 59 59 64
SE 42 36 35 43 34
SE 36 31 37 32 33
SE 26 30 24 30 27
SE 32 38 35 32 37
SE 40 39 35 36 42
SE 12 14 13 12 15
SE 14 16 15 15 13
SE 26 24 24 22 23
SE 40 33 36 34 38
SE 18 17 19 21 20
SE 17 17 16 15 17
SE 12 13 12 12 12
SE 29 27 31 27 28
SE 25 26 23 24 27
SE 24 28 29 25 26
SE 33 32 34 32 31
SE 14 12 14 14 13
SE 10 9 9 10 9
SE 36 35 34 31 32
SE 22 18 21 23 18
SE 28 24 24 24 24
SE 25 24 27 22 26
SE 20 20 17 21 21
SE 15 14 17 15 14
SE 39 39 34 34 38
SE 33 35 37 39 34
SE 36 33 35 34 38
SE 22 21 25 25 23
SE 26 24 22 25 26
SE 28 25 25 30 27
SE 27 26 29 23 24
SE 29 31 34 35 33
SE 8 8 8 10 9
SE 29 31 29 29 36
SE 30 32 33 29 33
SE 35 33 34 30 35
SE 30 36 36 35 29
SE 12 12 10 10 11
SE 34 38 34 35 43
SE 38 36 38 34 31
SE 47 41 43 45 46
SE 54 49 44 49 49
SE 23 22 18 22 21
SE 16 16 18 18 18
SE 41 45 45 43 39
SE 47 51 50 45 51
SE 33 30 30 38 36
SE 38 38 35 35 35
SE 39 38 39 41 42
SE 30 27 30 26 25
SE 33 37 35 39 34
SE 2 2 2 2 2
SE 10 9 10 10 11
SE 16 18 16 15 19
SE 25 21 22 22 22
SE 31 31 31 30 30
END

SECTION StochasticTerminals
ST 1 1 1 1 1 1
ST 2 1 1 1 1 1
ST 3 1 1 1 1 1
ST 4 1 1 1 1 1
ST 5 1 1 1 1 1
ST 6 1 1 1 1 1
ST 7 1 1 1 1 1
ST 8 1 1 1 1 1
ST 9 1 1 1 1 1
ST 10 1 1 1 1 1
ST 11 1 1 1 1 1
ST 12 1 1 1 1 1
ST 13 1 1 1 1 1
ST 14 1 1 1 1 1
ST 15 1 1 1 1 1
ST 16 1 1 1 1 1
ST 17 1 1 1 1 1
ST 18 1 1 1 1 1
ST 19 1 1 1 1 1
ST 20 1 1 1 1 1
ST 21 1 1 1 1 1
ST 22 1 1 1 1 1
ST 23 1 1 1 1 1
ST 24 1 1 1 1 1
ST 25 1 1 1 1 1
ST 26 1 1 1 1 1
ST 27 1 1 1 1 1
ST 28 1 1 1 1 1
ST 29 1 1 1 1 1
ST 30 1 1 1 1 1
ST 31 1 1 1 1 1
ST 32 1 1 1 1 1
ST 33 1 1 1 1 1
ST 34 1 1 1 1 1
ST 35 1 1 1 1 1
ST 36 1 1 1 1 1
ST 37 1 1 1 1 1
ST 38 1 1 1 1 1
ST 39 1 1 1 1 1
ST 40 1 1 1 1 1
ST 41 1 1 1 1 1
ST 42 1 1 1 1 1
ST 43 1 1 1 1 1
ST 44 1 1 1 1 1
ST 45 1 1 1 1 1
ST 46 1 1 1 1 1
ST 47 1 1 1 1 1
ST 48 1 1 1 1 1
ST 49 1 1 1 1 1
ST 50 1 1 1 1 1
ST 51 1 1 1 1 1
END

EOF
